NAME : 10_3_3_3_(44).dat
COMMENT : Henke, Speranza, Wäscher, 2015
TYPE : MCVRP
DIMENSION : 11
EDGE_WEIGHT_TYPE : DISTANCE_MATRIX
CAPACITY : 1000
VEHICLES : 2
PRODUCT TYPES : 3
COMPARTMENTS : 3
NODE_COORD_SECTION
1 50 50
2 67.67 39.16
3 32.76 87.75
4 39.39 3.26
5 73.04 2.55
6 70.76 12.28
7 25.76 54.7
8 32.83 3.42
9 58 66.14
10 49.58 79.66
11 95.53 12.98
DEMAND_SECTION
1 0 0 0
2 139 10 1
3 81 44 6
4 33 99 54
5 31 98 44
6 124 56 44
7 12 4 19
8 77 75 45
9 41 4 18
10 22 13 6
11 140 17 42
DEPOT_SECTION
1
EOF